false false false
presolving:
presolving (0 rounds: 0 fast, 0 medium, 0 exhaustive):
 0 deleted vars, 0 deleted constraints, 0 added constraints, 0 tightened bounds, 0 added holes, 0 changed sides, 0 changed coefficients
 0 implications, 0 cliques
presolved problem has 83 variables (83 bin, 0 int, 0 impl, 0 cont) and 76 constraints
     76 constraints of type <linear>
transformed objective value is always integral (scale: 1)
Presolving Time: 0.00

 time | node  | left  |LP iter|LP it/n|mem/heur|mdpt |vars |cons |rows |cuts |sepa|confs|strbr|  dualbound   | primalbound  |  gap   | compl. 
p 0.0s|     1 |     0 |     0 |     - |shiftand|   0 |  83 |  76 |  76 |   0 |  0 |   0 |   0 |      --      | 7.000000e+00 |    Inf | unknown
 time | node  | left  |LP iter|LP it/n|mem/heur|mdpt |vars |cons |rows |cuts |sepa|confs|strbr|  dualbound   | primalbound  |  gap   | compl. 
  3.2s|     1 |     0 |    15 |     - |  2068k |   0 | 409 |  76 |  76 |   0 |  0 |   0 |   0 | 1.000000e+00 | 7.000000e+00 | 600.00%| unknown
slurmstepd-htc-cmp449: error: *** JOB 16657451 ON htc-cmp449 CANCELLED AT 2024-01-28T05:36:35 DUE TO TIME LIMIT ***
